NAME: random29
TYPE: TSP
DIMENSION: 29
EDGE_WEIGHT_TYPE: EXPLICIT
EDGE_WEIGHT_FORMAT: FULL_MATRIX
EDGE_WEIGHT_SECTION
0 1250 1250 1250 1250 1250 1250 25 1250 52 1250 1250 1250 1250 16 1250 1250 1250 1250 1250 1250 1250 1250 66 1250 14 1250 25 1250
1250 0 1250 1250 1250 17 1250 1250 1250 1250 18 1250 1250 1250 1250 13 1250 10 1250 1250 1250 1250 21 1250 19 1250 1250 1250 1250
1250 1250 0 1250 1250 1250 1250 1250 1250 1250 1250 1250 12 29 1250 1250 12 1250 1250 21 1250 1250 1250 1250 1250 1250 16 1250 15
1250 1250 1250 0 12 1250 1250 1250 1250 12 1250 13 1250 1250 1250 1250 1250 1250 25 1250 26 1250 1250 1250 1250 1250 1250 1250 1250
1250 1250 1250 12 0 1250 1250 1250 1250 11 1250 1250 29 27 30 1250 1250 1250 28 1250 1250 1250 1250 1250 1250 1250 1250 1250 1250
1250 17 1250 1250 1250 0 1250 1250 6 1250 1250 1250 1250 1250 1250 14 1250 1250 1250 1250 1250 1250 1250 1250 14 1250 1250 1250 1250
1250 1250 1250 1250 1250 1250 0 1250 1250 1250 52 1250 1250 1250 1250 24 1250 26 1250 38 1250 1250 1250 1250 1250 1250 29 90 1250
25 1250 1250 1250 1250 1250 1250 0 1250 1250 1250 1250 1250 24 27 1250 1250 1250 1250 20 1250 1250 1250 1250 1250 21 1250 35 1250
1250 1250 1250 1250 1250 6 1250 1250 0 1250 1250 1250 1250 1250 1250 16 1250 1250 22 1250 1250 1250 1250 1250 18 1250 12 1250 8
52 1250 1250 12 11 1250 1250 1250 1250 0 1250 15 1250 1250 37 1250 1250 1250 1250 1250 1250 1250 1250 14 1250 1250 1250 1250 1250
1250 18 1250 1250 1250 1250 52 1250 1250 1250 0 1250 1250 1250 1250 1250 1250 27 1250 1250 1250 1250 12 1250 1250 1250 1250 1250 1250
1250 1250 1250 13 1250 1250 1250 1250 1250 15 1250 0 1250 1250 1250 1250 1250 1250 1250 1250 33 50 1250 7 1250 1250 1250 1250 1250
1250 1250 12 1250 29 1250 1250 1250 1250 1250 1250 1250 0 32 1250 1250 1 1250 9 1250 1250 1250 1250 1250 1250 1250 1250 1250 1250
1250 1250 29 1250 27 1250 1250 24 1250 1250 1250 1250 32 0 8 1250 1250 1250 1250 33 1250 1250 1250 1250 1250 1250 1250 1250 1250
16 1250 1250 1250 30 1250 1250 27 1250 37 1250 1250 1250 8 0 1250 1250 1250 1250 1250 1250 1250 1250 1250 1250 1250 1250 1250 1250
1250 13 1250 1250 1250 14 24 1250 16 1250 1250 1250 1250 1250 1250 0 1250 5 1250 1250 1250 1250 1250 1250 1250 1250 18 1250 1250
1250 1250 12 1250 1250 1250 1250 1250 1250 1250 1250 1250 1 1250 1250 1250 0 1250 10 1250 1250 1250 1250 1250 1250 1250 1250 1250 12
1250 10 1250 1250 1250 1250 26 1250 1250 1250 27 1250 1250 1250 1250 5 1250 0 1250 1250 1250 1250 1250 1250 1250 1250 1250 1250 1250
1250 1250 1250 25 28 1250 1250 1250 22 1250 1250 1250 9 1250 1250 1250 10 1250 0 1250 16 1250 1250 1250 27 1250 1250 1250 17
1250 1250 21 1250 1250 1250 38 20 1250 1250 1250 1250 1250 33 1250 1250 1250 1250 1250 0 1250 1250 1250 1250 1250 1250 27 54 1250
1250 1250 1250 26 1250 1250 1250 1250 1250 1250 1250 33 1250 1250 1250 1250 1250 1250 16 1250 0 18 1250 1250 25 1250 1250 1250 1250
1250 1250 1250 1250 1250 1250 1250 1250 1250 1250 1250 50 1250 1250 1250 1250 1250 1250 1250 1250 18 0 19 1250 15 1250 1250 1250 1250
1250 21 1250 1250 1250 1250 1250 1250 1250 1250 12 1250 1250 1250 1250 1250 1250 1250 1250 1250 1250 19 0 1250 17 1250 1250 1250 1250
66 1250 1250 1250 1250 1250 1250 1250 1250 14 1250 7 1250 1250 1250 1250 1250 1250 1250 1250 1250 1250 1250 0 1250 1250 1250 91 1250
1250 19 1250 1250 1250 14 1250 1250 18 1250 1250 1250 1250 1250 1250 1250 1250 1250 27 1250 25 15 17 1250 0 1250 1250 1250 1250
14 1250 1250 1250 1250 1250 1250 21 1250 1250 1250 1250 1250 1250 1250 1250 1250 1250 1250 1250 1250 1250 1250 1250 1250 0 1250 15 1250
1250 1250 16 1250 1250 1250 29 1250 12 1250 1250 1250 1250 1250 1250 18 1250 1250 1250 27 1250 1250 1250 1250 1250 1250 0 1250 11
25 1250 1250 1250 1250 1250 90 35 1250 1250 1250 1250 1250 1250 1250 1250 1250 1250 1250 54 1250 1250 1250 91 1250 15 1250 0 1250
1250 1250 15 1250 1250 1250 1250 1250 8 1250 1250 1250 1250 1250 1250 1250 12 1250 17 1250 1250 1250 1250 1250 1250 1250 11 1250 0
EOF
